p cnf 12 50 
-3 12 -4 0
-1 7 11 0
-12 2 11 0
7 12 -8 0
-10 -5 8 0
7 -10 -9 0
11 -8 -5 0
-1 7 5 0
-3 -4 -8 0
-9 -6 -1 0
-7 -10 -1 0
3 -10 11 0
2 -7 -5 0
10 5 -1 0
8 -4 3 0
-7 3 -2 0
-5 -7 -10 0
-11 -5 -2 0
-3 -6 -8 0
9 -2 7 0
11 1 12 0
-9 -2 -5 0
2 7 -6 0
3 5 11 0
1 7 -2 0
-5 9 12 0
-5 -8 -6 0
-11 10 -8 0
-4 2 -1 0
11 -12 -9 0
-3 5 6 0
2 10 -9 0
7 3 -9 0
10 -8 -5 0
-8 -7 4 0
-5 -8 -6 0
-9 -4 -6 0
-1 7 -6 0
-6 -9 -7 0
9 -8 -12 0
10 -11 -4 0
8 -1 -3 0
6 10 11 0
10 -3 -6 0
-9 -6 -12 0
-10 9 2 0
10 -5 -1 0
5 -8 2 0
1 -12 -9 0
-8 6 -7 0
